
param n := 7;
param m := 4;

set X[1] := 1;
set X[2] := 2 3;
set X[3] := 4 5;
set X[4] := 5;

set Y[1] := 2 3;
set Y[2] := 4;
set Y[3] := 6 7;
set Y[4] := 7;

param invertible :=	
1 1
2 0
3 0
4 1;


option solver cplex;
solve;
display inverted;
display has_in;
display has_out;
display _solve_user_time;